
Gurobi 12.0.2 (mac64[arm]) logging started Fri Jun 13 18:51:19 2025

Set parameter LogFile to value "/Users/yurunfeng/Documents/GitHub/LRGTS-store-location/result/gurobi/snyder/15nodes/15-0.85-4.log"
Gurobi Optimizer version 12.0.2 build v12.0.2rc0 (mac64[arm] - Darwin 24.5.0 24F74)

CPU model: Apple M4
Thread count: 10 physical cores, 10 logical processors, using up to 10 threads

Non-default parameters:
TimeLimit  1200

Optimize a model with 4785 rows, 7245 columns and 33600 nonzeros
Model fingerprint: 0x1a69659c
Variable types: 3615 continuous, 3630 integer (3630 binary)
Coefficient statistics:
  Matrix range     [2e-01, 1e+00]
  Objective range  [7e+03, 3e+06]
  Bounds range     [1e+00, 1e+00]
  RHS range        [1e+00, 4e+00]
Found heuristic solution: objective 1.648316e+07
Presolve removed 488 rows and 240 columns
Presolve time: 0.06s
Presolved: 4297 rows, 7005 columns, 30116 nonzeros
Variable types: 3375 continuous, 3630 integer (3630 binary)

Root relaxation: objective 7.732971e+05, 579 iterations, 0.01 seconds (0.02 work units)

    Nodes    |    Current Node    |     Objective Bounds      |     Work
 Expl Unexpl |  Obj  Depth IntInf | Incumbent    BestBd   Gap | It/Node Time

     0     0 773297.088    0  212 1.6483e+07 773297.088  95.3%     -    0s
H    0     0                    2332266.0261 773297.088  66.8%     -    0s
H    0     0                    1138173.0473 773297.088  32.1%     -    0s
H    0     0                    1028391.3050 773297.088  24.8%     -    0s
H    0     0                    1028390.4524 773297.088  24.8%     -    0s
H    0     0                    1026605.8064 773297.088  24.7%     -    0s
H    0     0                    1024874.0452 773297.088  24.5%     -    0s
H    0     0                    1018577.1572 773297.088  24.1%     -    0s
H    0     0                    1016260.3760 773297.088  23.9%     -    0s
H    0     0                    994904.69382 773297.088  22.3%     -    0s
H    0     0                    994415.11566 773297.088  22.2%     -    0s
H    0     0                    983974.57579 773297.088  21.4%     -    0s
H    0     0                    983974.57497 773297.088  21.4%     -    0s
H    0     0                    953448.43377 773297.088  18.9%     -    0s
H    0     0                    952093.60843 773297.088  18.8%     -    0s
H    0     0                    951557.11775 773297.088  18.7%     -    0s
H    0     0                    950085.78837 773297.088  18.6%     -    0s
     0     0 804719.560    0  184 950085.788 804719.560  15.3%     -    0s
H    0     0                    934753.73103 804719.560  13.9%     -    0s
H    0     0                    916955.99268 804719.560  12.2%     -    0s
H    0     0                    916719.03456 804719.560  12.2%     -    0s
H    0     0                    903663.26815 804719.560  10.9%     -    0s
H    0     0                    901744.80850 804719.560  10.8%     -    0s
H    0     0                    901744.80303 804719.560  10.8%     -    0s
     0     0 809623.676    0  309 901744.803 809623.676  10.2%     -    0s
     0     0 810686.777    0  310 901744.803 810686.777  10.1%     -    0s
     0     0 818433.746    0  416 901744.803 818433.746  9.24%     -    0s
     0     0 818942.353    0  421 901744.803 818942.353  9.18%     -    0s
     0     0 819021.081    0  428 901744.803 819021.081  9.17%     -    0s
H    0     0                    874618.38094 819664.726  6.28%     -    0s
H    0     0                    874618.38084 819664.726  6.28%     -    0s
H    0     0                    873287.79868 819851.163  6.12%     -    0s
     0     0 819851.163    0  476 873287.799 819851.163  6.12%     -    0s
     0     0 819940.076    0  449 873287.799 819940.076  6.11%     -    0s
     0     2 819940.076    0  449 873287.799 819940.076  6.11%     -    0s
H   40    48                    871146.13822 819940.076  5.88%   171    1s
H  944   745                    870837.16952 819940.076  5.84%  27.1    1s
  2051  1505 857430.966   31  576 870837.170 830423.995  4.64%  21.2    5s
  2102  1556     cutoff   27      870837.170 840996.280  3.43%  34.5   10s
H 2133  1480                    870837.16937 840996.280  3.43%  37.3   10s
 11753  2612 865099.599   47  124 870837.169 858300.999  1.44%  39.6   15s
 25224  1614 870316.430   59    9 870837.169 865688.458  0.59%  39.4   20s

Cutting planes:
  Lift-and-project: 1
  Cover: 24
  Implied bound: 19
  MIR: 108
  Mixing: 2
  Flow cover: 875
  GUB cover: 2
  Zero half: 16
  RLT: 13
  BQP: 2

Explored 29828 nodes (1103672 simplex iterations) in 21.00 seconds (44.94 work units)
Thread count was 10 (of 10 available processors)

Solution count 10: 870837 871146 873288 ... 950086

Optimal solution found (tolerance 1.00e-04)
Best objective 8.708371694011e+05, best bound 8.708371693652e+05, gap 0.0000%
